c turning on binary mode checking
c parsing input formula with 2 variables and 3 clauses
c finished parsing
c UNSAT via unit propagation on the input instance
c 3 of 3 clauses in core
c 1 of 3 lemmas in core using 3 resolution steps
c 0 RAT lemmas in core; 0 redundant literals in core lemmas
s VERIFIED
c verification time: 0.068 seconds
